
  15    0


   0   8 2 3 4 5 11 12 13 14 
   5   4 10 9 8 7 
   7   1 7 
   3   1 6 
   8   1 6 
   7   1 15
   1   1 15
   4   1 15
   6   1 15
   3   1 15
   5   1 15
   4   1 15
   5   1 15
   5   1 15
   0   0 
